35
1 0 8
2 0 1
2 1 8
3 0 7
3 1 4
3 2 4
4 0 6
4 1 2
4 2 8
4 3 6
5 0 4
5 1 9
5 2 4
5 3 9
5 4 6
6 0 3
6 1 3
6 2 9
6 3 7
6 4 1
6 5 9
7 0 9
7 1 5
7 2 1
7 3 7
7 4 7
7 5 7
7 6 10
8 0 6
8 1 10
8 2 6
8 3 3
8 4 5
8 5 10
8 6 7
8 7 7
9 0 6
9 1 5
9 2 7
9 3 7
9 4 4
9 5 10
9 6 4
9 7 7
9 8 2
10 0 6
10 1 5
10 2 10
10 3 3
10 4 4
10 5 1
10 6 1
10 7 10
10 8 5
10 9 1
11 0 5
11 1 2
11 2 2
11 3 8
11 4 3
11 5 8
11 6 4
11 7 2
11 8 5
11 9 5
11 10 7
12 0 3
12 1 2
12 2 6
12 3 6
12 4 6
12 5 10
12 6 1
12 7 3
12 8 10
12 9 7
12 10 1
12 11 3
13 0 8
13 1 3
13 2 1
13 3 1
13 4 2
13 5 7
13 6 1
13 7 7
13 8 3
13 9 10
13 10 3
13 11 3
13 12 1
14 0 3
14 1 3
14 2 2
14 3 4
14 4 8
14 5 4
14 6 6
14 7 2
14 8 5
14 9 6
14 10 1
14 11 1
14 12 7
14 13 4
15 0 8
15 1 1
15 2 9
15 3 1
15 4 4
15 5 1
15 6 10
15 7 7
15 8 6
15 9 5
15 10 4
15 11 1
15 12 6
15 13 2
15 14 2
16 0 4
16 1 2
16 2 3
16 3 6
16 4 8
16 5 3
16 6 8
16 7 1
16 8 10
16 9 9
16 10 10
16 11 2
16 12 4
16 13 7
16 14 7
16 15 1
17 0 2
17 1 6
17 2 6
17 3 10
17 4 2
17 5 6
17 6 4
17 7 9
17 8 5
17 9 5
17 10 6
17 11 3
17 12 1
17 13 7
17 14 3
17 15 5
17 16 3
18 0 9
18 1 3
18 2 2
18 3 3
18 4 9
18 5 7
18 6 2
18 7 9
18 8 2
18 9 6
18 10 5
18 11 7
18 12 6
18 13 10
18 14 2
18 15 8
18 16 1
18 17 1
19 0 4
19 1 2
19 2 3
19 3 1
19 4 3
19 5 1
19 6 6
19 7 8
19 8 6
19 9 4
19 10 9
19 11 8
19 12 10
19 13 3
19 14 2
19 15 5
19 16 8
19 17 6
19 18 6
20 0 7
20 1 9
20 2 5
20 3 6
20 4 2
20 5 10
20 6 8
20 7 3
20 8 4
20 9 7
20 10 5
20 11 10
20 12 1
20 13 2
20 14 5
20 15 3
20 16 2
20 17 4
20 18 7
20 19 9
21 0 6
21 1 10
21 2 9
21 3 8
21 4 2
21 5 7
21 6 3
21 7 4
21 8 7
21 9 6
21 10 7
21 11 4
21 12 4
21 13 1
21 14 3
21 15 7
21 16 10
21 17 5
21 18 3
21 19 5
21 20 10
22 0 2
22 1 8
22 2 5
22 3 6
22 4 8
22 5 2
22 6 6
22 7 9
22 8 2
22 9 8
22 10 8
22 11 4
22 12 10
22 13 1
22 14 4
22 15 2
22 16 10
22 17 4
22 18 8
22 19 8
22 20 7
22 21 3
23 0 1
23 1 1
23 2 10
23 3 1
23 4 9
23 5 7
23 6 7
23 7 9
23 8 6
23 9 9
23 10 9
23 11 8
23 12 5
23 13 6
23 14 4
23 15 5
23 16 9
23 17 7
23 18 9
23 19 9
23 20 3
23 21 4
23 22 10
24 0 1
24 1 3
24 2 2
24 3 4
24 4 5
24 5 5
24 6 1
24 7 3
24 8 5
24 9 10
24 10 2
24 11 2
24 12 6
24 13 4
24 14 9
24 15 4
24 16 6
24 17 8
24 18 10
24 19 6
24 20 2
24 21 8
24 22 7
24 23 10
25 0 6
25 1 1
25 2 9
25 3 10
25 4 3
25 5 1
25 6 9
25 7 1
25 8 10
25 9 3
25 10 1
25 11 9
25 12 8
25 13 1
25 14 5
25 15 6
25 16 9
25 17 10
25 18 3
25 19 10
25 20 5
25 21 7
25 22 4
25 23 7
25 24 10
26 0 10
26 1 1
26 2 10
26 3 4
26 4 10
26 5 10
26 6 7
26 7 3
26 8 4
26 9 4
26 10 6
26 11 5
26 12 9
26 13 2
26 14 10
26 15 3
26 16 2
26 17 8
26 18 10
26 19 8
26 20 10
26 21 6
26 22 2
26 23 4
26 24 4
26 25 4
27 0 5
27 1 8
27 2 2
27 3 4
27 4 3
27 5 2
27 6 4
27 7 4
27 8 4
27 9 8
27 10 9
27 11 7
27 12 3
27 13 5
27 14 7
27 15 2
27 16 1
27 17 10
27 18 4
27 19 10
27 20 2
27 21 2
27 22 6
27 23 10
27 24 3
27 25 5
27 26 5
28 0 8
28 1 1
28 2 6
28 3 3
28 4 8
28 5 6
28 6 4
28 7 1
28 8 1
28 9 5
28 10 3
28 11 1
28 12 7
28 13 7
28 14 10
28 15 7
28 16 5
28 17 4
28 18 9
28 19 2
28 20 3
28 21 9
28 22 8
28 23 3
28 24 6
28 25 1
28 26 6
28 27 1
29 0 5
29 1 8
29 2 7
29 3 3
29 4 6
29 5 1
29 6 5
29 7 10
29 8 9
29 9 4
29 10 2
29 11 5
29 12 7
29 13 4
29 14 3
29 15 9
29 16 6
29 17 6
29 18 5
29 19 9
29 20 6
29 21 9
29 22 10
29 23 10
29 24 10
29 25 2
29 26 4
29 27 10
29 28 7
30 0 4
30 1 1
30 2 6
30 3 5
30 4 2
30 5 9
30 6 10
30 7 7
30 8 5
30 9 2
30 10 7
30 11 3
30 12 1
30 13 1
30 14 9
30 15 8
30 16 9
30 17 3
30 18 9
30 19 2
30 20 4
30 21 6
30 22 6
30 23 2
30 24 2
30 25 10
30 26 2
30 27 9
30 28 2
30 29 10
31 0 3
31 1 10
31 2 9
31 3 7
31 4 10
31 5 5
31 6 7
31 7 5
31 8 9
31 9 9
31 10 9
31 11 5
31 12 9
31 13 1
31 14 6
31 15 5
31 16 1
31 17 9
31 18 3
31 19 7
31 20 10
31 21 1
31 22 9
31 23 8
31 24 8
31 25 10
31 26 6
31 27 4
31 28 10
31 29 2
31 30 5
32 0 8
32 1 3
32 2 10
32 3 9
32 4 3
32 5 3
32 6 9
32 7 6
32 8 3
32 9 6
32 10 7
32 11 7
32 12 7
32 13 5
32 14 3
32 15 9
32 16 8
32 17 2
32 18 7
32 19 7
32 20 4
32 21 7
32 22 7
32 23 7
32 24 6
32 25 2
32 26 3
32 27 2
32 28 8
32 29 6
32 30 9
32 31 10
33 0 7
33 1 6
33 2 5
33 3 1
33 4 1
33 5 6
33 6 5
33 7 2
33 8 10
33 9 8
33 10 3
33 11 6
33 12 2
33 13 1
33 14 3
33 15 1
33 16 5
33 17 2
33 18 1
33 19 1
33 20 9
33 21 8
33 22 1
33 23 1
33 24 3
33 25 8
33 26 1
33 27 2
33 28 3
33 29 10
33 30 7
33 31 10
33 32 9
34 0 2
34 1 3
34 2 4
34 3 2
34 4 2
34 5 1
34 6 9
34 7 2
34 8 8
34 9 5
34 10 7
34 11 10
34 12 7
34 13 7
34 14 10
34 15 5
34 16 8
34 17 10
34 18 7
34 19 3
34 20 9
34 21 3
34 22 8
34 23 1
34 24 6
34 25 2
34 26 2
34 27 5
34 28 3
34 29 4
34 30 8
34 31 1
34 32 6
34 33 8
